outputs/case_412.model.txt
real_estate_investment_excluding_owner_use = 4000000
owner_equity_total = 10000000
total_funds = 40000000/3
real_estate_use_and_income_flag = False
owner_use_real_estate_investment = True
social_housing_exception = True
internal_control_executed_flag = True
internal_handling_executed_flag = True
internal_handling_established_flag = True
internal_control_established_flag = True
real_estate_investment_use_and_income_ok = False
internal_handling_established = True
real_estate_internal_procedure_flag = True
internal_handling_compliance = True
real_estate_valuation_flag = True
real_estate_investment_internal_procedure_ok = True
real_estate_investment_limit_ok = True
internal_control_executed = True
real_estate_investment_compliance = True
penalty = False
internal_control_compliance = True
internal_handling_executed = True
internal_control_established = True
real_estate_valuation_ok = True